
50
13946

329 329
984 984
960 960
919 919
790 790
876 876
1 1
627 627
248 248
731 731
433 433
561 561
543 543
577 577
828 828
982 982
346 346
807 807
890 890
393 393
124 124
498 498
765 765
525 525
185 185
706 706
325 325
887 887
169 169
594 594
386 386
985 985
139 139
881 881
418 418
372 372
209 209
495 495
930 930
1000 1000
940 940
612 612
237 237
508 508
650 650
296 296
987 987
85 85
235 235
204 204
